interdiction/MCDM/NO_CORR/GEN_FROM_60/18_ITEMS_1000_GEN/K5018W12.KNP.mps
NAME          BLANK   
ROWS
 N  OBJROW
 L  R0000000
COLUMNS
    C0000000  OBJROW     -961.         R0000000  565.        
    C0000001  OBJROW     -924.         R0000000  722.        
    C0000002  OBJROW     -604.         R0000000  129.        
    C0000003  OBJROW     -102.         R0000000  409.        
    C0000004  OBJROW     -381.         R0000000  523.        
    C0000005  OBJROW     -910.         R0000000  119.        
    C0000006  OBJROW     -621.         R0000000  979.        
    C0000007  OBJROW     -955.         R0000000  369.        
    C0000008  OBJROW     -276.         R0000000  839.        
    C0000009  OBJROW     -237.         R0000000  309.        
    C0000010  OBJROW     -766.         R0000000  150.        
    C0000011  OBJROW     -975.         R0000000  263.        
    C0000012  OBJROW     -610.         R0000000  507.        
    C0000013  OBJROW     -530.         R0000000  979.        
    C0000014  OBJROW     -697.         R0000000  390.        
    C0000015  OBJROW     -176.         R0000000  77.         
    C0000016  OBJROW     -947.         R0000000  102.        
    C0000017  OBJROW     -942.         R0000000  67.         
RHS
    RHS       R0000000  13900.      
BOUNDS
 BV BOUND     C0000000  1.          
 BV BOUND     C0000001  1.          
 BV BOUND     C0000002  1.          
 BV BOUND     C0000003  1.          
 BV BOUND     C0000004  1.          
 BV BOUND     C0000005  1.          
 BV BOUND     C0000006  1.          
 BV BOUND     C0000007  1.          
 BV BOUND     C0000008  1.          
 BV BOUND     C0000009  1.          
 BV BOUND     C0000010  1.          
 BV BOUND     C0000011  1.          
 BV BOUND     C0000012  1.          
 BV BOUND     C0000013  1.          
 BV BOUND     C0000014  1.          
 BV BOUND     C0000015  1.          
 BV BOUND     C0000016  1.          
 BV BOUND     C0000017  1.          
ENDATA
