data/MCDM/NO_CORR/GEN_FROM_60/18_ITEMS_1000_GEN/K5018W12.KNP.txt
N 18
M 19
LC 18
LC 19
LC 20
LC 21
LC 22
LC 23
LC 24
LC 25
LC 26
LC 27
LC 28
LC 29
LC 30
LC 31
LC 32
LC 33
LC 34
LC 35
LR 1
LR 2
LR 3
LR 4
LR 5
LR 6
LR 7
LR 8
LR 9
LR 10
LR 11
LR 12
LR 13
LR 14
LR 15
LR 16
LR 17
LR 18
LR 19
LO -961
LO -924
LO -604
LO -102
LO -381
LO -910
LO -621
LO -955
LO -276
LO -237
LO -766
LO -975
LO -610
LO -530
LO -697
LO -176
LO -947
LO -942
OS 1
IC 282
IC 577
IC 770
IC 863
IC 45
IC 460
IC 975
IC 977
IC 169
IC 127
IC 677
IC 812
IC 741
IC 13
IC 973
IC 925
IC 501
IC 512
IB 5200
